149 8 89 88 92 171 140 29 100 45 72 181 5 118 186 111 22 39 48 66 168 174 144 113 86 54 95 137 76 41 9 4 115 163 90 139 197 71 105 14 58 116 147 42 154 59 35 127 135 117 1 36 176 85 159 175 103 50 19 132 160 142 57 198 110 31 44 191 133 125 183 0 12 43 153 27 24 188 91 2 26 169 184 33 96 148 155 152 102 84 23 53 62 122 56 185 16 199 130 47 63 129 161 79 114 13 52 112 82 74 51 38 158 179 60 164 21 128 61 81 192 109 28 194 93 10 75 87 136 141 143 123 124 83 17 126 108 189 15 73 190 145 6 77 119 49 78 80 166 104 172 167 65 97 146 55 150 156 177 101 64 3 187 68 121 20 107 138 94 195 99 162 151 7 157 32 11 178 40 120 98 18 30 193 106 182 37 170 196 69 131 134 25 173 165 70 67 180 34 46